NAME : LPS-n26-m202
COMMENT : (Lartu-Peter-Santi Plot, instance 9402 out of 39200. 26 customers.)
TYPE : CVRP
DIMENSION : 26
EDGE_WEIGHT_TYPE : EUC_2D
CAPACITY : 138
NODE_COORD_SECTION
 1 41 39
 2 78 61
 3 20 63
 4 95 53
 5 91 41
 6 92 65
 7 28 35
 8 69 23
 9 70 96
 10 90 56
 11 13 52
 12 72 91
 13 8 74
 14 88 27
 15 20 86
 16 96 74
 17 24 37
 18 76 22
 19 51 58
 20 78 60
 21 91 90
 22 43 7
 23 38 15
 24 62 60
 25 84 54
 26 65 84
DEMAND_SECTION
1 0
2 62
3 69
4 44
5 91
6 9
7 115
8 53
9 138
10 95
11 83
12 79
13 43
14 43
15 133
16 128
17 9
18 74
19 31
20 111
21 22
22 13
23 14
24 62
25 105
26 69
DEPOT_SECTION
 1
 -1
EOF
